 $CONTRL SCFTYP=RHF RUNTYP=energy MULT=1 NPRINT=8 $END
 $SYSTEM TIMLIM=5000 MEMORY=2000000 $END
 $BASIS  GBASIS=STO NGAUSS=3 $END
 $SCF DIIS=.T. SOSCF=.F. $END
 $DATA
 H2 
 C1
 H     1.0   -0.5 0.0 0.0 
 H     1.0    0.5 0.0 0.0 
 $END
